170
104
28
0
78
54
50
97
20
0
146
40
37
33
0
46
18
33
43
15
29
0
38
61
33
0
34
0
28
43
90
14
67
23
67
49
0
47
18
51
67
0
34
37
89
34
101
20
0
28
64
21
23
83
0
47
46
64
61
20
83
122
32
122
98
260
136
34
38
26
152
23
104
0
17
115
20
22
109
29
64
137
32
33
20
21
0
37
0
81
164
52
59
15
43
109
37
82
0
42
